p cnf 145 494
-1 -2 -3 0
1 2 -3 0
-1 2 3 0
1 -2 3 0
-6 4 0
-6 -5 0
-4 5 6 0
7 -3 0
7 6 0
3 -6 -7 0
-9 10 -11 0
9 -10 -11 0
-9 -10 11 0
9 10 11 0
13 14 0
-13 14 0
-12 -14 -15 0
12 14 -15 0
-12 14 15 0
12 -14 15 0
-18 16 0
-18 -17 0
-16 17 18 0
-15 -18 -19 0
15 18 -19 0
-15 18 19 0
15 -18 19 0
-20 9 0
-20 9 0
-9 20 0
-21 20 0
-21 -4 0
-20 4 21 0
-19 21 -22 0
19 -21 -22 0
-19 -21 22 0
19 21 22 0
1 22 -23 0
-1 -22 -23 0
1 -22 23 0
-1 22 23 0
-24 -11 0
-24 23 0
11 -23 24 0
-8 24 -25 0
8 -24 -25 0
-8 -24 25 0
8 24 25 0
-6 -22 -26 0
6 22 -26 0
-6 22 26 0
6 -22 26 0
28 -27 0
28 20 0
27 -20 -28 0
-10 14 -29 0
10 -14 -29 0
-10 -14 29 0
10 14 29 0
-31 -16 0
-31 30 0
16 -30 31 0
-32 -29 0
-32 -31 0
29 31 32 0
-33 -28 0
-33 -32 0
28 32 33 0
34 26 0
34 -33 0
-26 33 -34 0
36 -12 0
36 6 0
12 -6 -36 0
37 35 0
37 36 0
-35 -36 -37 0
-38 34 0
-38 37 0
-34 -37 38 0
-39 25 0
-39 38 0
-25 -38 39 0
-7 -39 -40 0
7 39 -40 0
-7 39 40 0
7 -39 40 0
-41 27 0
-41 -35 0
-27 35 41 0
43 -30 0
43 -42 0
30 42 -43 0
-5 -43 -44 0
5 43 -44 0
-5 43 44 0
5 -43 44 0
45 -33 0
45 17 0
33 -17 -45 0
-13 -45 -46 0
13 45 -46 0
-13 45 46 0
13 -45 46 0
-44 46 -47 0
44 -46 -47 0
-44 -46 47 0
44 46 47 0
5 2 -48 0
-5 -2 -48 0
5 -2 48 0
-5 2 48 0
49 47 0
49 -48 0
-47 48 -49 0
-41 -49 -50 0
41 49 -50 0
-41 49 50 0
41 -49 50 0
51 2 0
51 -18 0
-2 18 -51 0
52 -9 0
52 -51 0
9 51 -52 0
-53 -5 0
-53 17 0
5 -17 53 0
-54 -53 0
-54 -10 0
53 10 54 0
-55 -51 0
-55 -2 0
51 2 55 0
56 31 0
56 -55 0
-31 55 -56 0
54 -56 -57 0
-54 56 -57 0
54 56 57 0
-54 -56 57 0
58 52 0
58 57 0
-52 -57 -58 0
-59 5 0
-59 27 0
-5 -27 59 0
-55 59 -60 0
55 -59 -60 0
-55 -59 60 0
55 59 60 0
61 60 0
61 -51 0
-60 51 -61 0
-62 -19 0
-62 -18 0
19 18 62 0
-63 -61 0
-63 62 0
61 -62 63 0
64 58 0
64 63 0
-58 -63 -64 0
65 10 0
65 42 0
-10 -42 -65 0
-66 -64 0
-66 -65 0
64 65 66 0
-53 -2 -67 0
53 2 -67 0
-53 2 67 0
53 -2 67 0
32 -20 -68 0
-32 20 -68 0
32 20 68 0
-32 -20 68 0
69 -67 0
69 -68 0
67 68 -69 0
70 66 0
70 69 0
-66 -69 -70 0
-50 70 -71 0
50 -70 -71 0
-50 -70 71 0
50 70 71 0
-72 40 0
-72 71 0
-40 -71 72 0
73 -21 0
73 -21 0
21 -73 0
74 -51 0
74 2 0
51 -2 -74 0
-75 -2 0
-75 74 0
2 -74 75 0
-76 -73 0
-76 -75 0
73 75 76 0
-77 76 0
-77 -53 0
-76 53 77 0
77 33 -78 0
-77 -33 -78 0
77 -33 78 0
-77 33 78 0
80 16 0
80 79 0
-16 -79 -80 0
-81 -13 0
-81 -80 0
13 80 81 0
82 -78 0
82 -81 0
78 81 -82 0
-83 21 0
-83 -42 0
-21 42 83 0
53 -5 -84 0
-53 5 -84 0
53 5 84 0
-53 -5 84 0
-85 21 0
-85 -84 0
-21 84 85 0
86 83 0
86 85 0
-83 -85 -86 0
87 82 0
87 -86 0
-82 86 -87 0
-53 -80 -88 0
53 80 -88 0
-53 80 88 0
53 -80 88 0
89 -88 0
89 36 0
88 -36 -89 0
-32 51 -90 0
32 -51 -90 0
-32 -51 90 0
32 51 90 0
-91 -55 0
-91 90 0
55 -90 91 0
92 89 0
92 91 0
-89 -91 -92 0
-5 -45 -93 0
5 45 -93 0
-5 45 93 0
5 -45 93 0
-94 -93 0
-94 4 0
93 -4 94 0
-95 26 0
-95 28 0
-26 -28 95 0
96 12 0
96 12 0
-12 -96 0
-97 -96 0
-97 -5 0
96 5 97 0
98 -97 0
98 -17 0
97 17 -98 0
-5 -35 -99 0
5 35 -99 0
-5 35 99 0
5 -35 99 0
100 98 0
100 99 0
-98 -99 -100 0
-101 100 0
-101 -90 0
-100 90 101 0
102 -95 0
102 101 0
95 -101 -102 0
103 94 0
103 102 0
-94 -102 -103 0
104 -92 0
104 -103 0
92 103 -104 0
-105 97 0
-105 97 0
-97 105 0
-80 105 -106 0
80 -105 -106 0
-80 -105 106 0
80 105 106 0
107 -45 0
107 -15 0
45 15 -107 0
-108 106 0
-108 107 0
-106 -107 108 0
98 -73 -109 0
-98 73 -109 0
98 73 109 0
-98 -73 109 0
-110 4 0
-110 109 0
-4 -109 110 0
111 6 0
111 -110 0
-6 110 -111 0
108 -111 -112 0
-108 111 -112 0
108 111 112 0
-108 -111 112 0
113 14 0
113 -97 0
-14 97 -113 0
-112 -113 -114 0
112 113 -114 0
-112 113 114 0
112 -113 114 0
115 -27 0
115 -97 0
27 97 -115 0
116 -35 0
116 -16 0
35 16 -116 0
-117 51 0
-117 -116 0
-51 116 117 0
98 97 -118 0
-98 -97 -118 0
98 -97 118 0
-98 97 118 0
-117 -118 -119 0
117 118 -119 0
-117 118 119 0
117 -118 119 0
-115 -119 -120 0
115 119 -120 0
-115 119 120 0
115 -119 120 0
-121 -114 0
-121 120 0
114 -120 121 0
93 60 -122 0
-93 -60 -122 0
93 -60 122 0
-93 60 122 0
90 -110 -123 0
-90 110 -123 0
90 110 123 0
-90 -110 123 0
-1 -15 -124 0
1 15 -124 0
-1 15 124 0
1 -15 124 0
-5 124 -125 0
5 -124 -125 0
-5 -124 125 0
5 124 125 0
123 -125 -126 0
-123 125 -126 0
123 125 126 0
-123 -125 126 0
127 -122 0
127 126 0
122 -126 -127 0
-128 -17 0
-128 -17 0
17 128 0
-129 -128 0
-129 59 0
128 -59 129 0
130 -129 0
130 -51 0
129 51 -130 0
-30 -130 -131 0
30 130 -131 0
-30 130 131 0
30 -130 131 0
-132 14 0
-132 3 0
-14 -3 132 0
-133 -131 0
-133 -132 0
131 132 133 0
127 -133 -134 0
-127 133 -134 0
127 133 134 0
-127 -133 134 0
135 22 0
135 -130 0
-22 130 -135 0
136 -5 0
136 17 0
5 -17 -136 0
137 -135 0
137 136 0
135 -136 -137 0
137 21 -138 0
-137 -21 -138 0
137 -21 138 0
-137 21 138 0
139 109 0
139 116 0
-109 -116 -139 0
-140 -138 0
-140 -139 0
138 139 140 0
-141 -134 0
-141 140 0
134 -140 141 0
142 121 0
142 141 0
-121 -141 -142 0
104 142 -143 0
-104 -142 -143 0
104 -142 143 0
-104 142 143 0
144 87 0
144 -143 0
-87 143 -144 0
72 -144 -145 0
-72 144 -145 0
72 144 145 0
-72 -144 145 0
108 -4 131 71 -117 0
88 -110 25 24 0
80 40 60 18 6 -43 0
-87 -4 29 0
93 19 123 -140 18 0
121 -7 39 -42 134 0
-29 57 0
12 -105 -17 -144 91 64 0
-76 55 0
13 -5 -20 -4 66 67 0
-58 -70 0
134 91 0
46 103 -36 0
118 50 0
-13 4 55 -98 -107 0
69 -30 18 0
-105 -71 102 -67 -94 0
37 -27 -83 -93 137 -107 0
-116 29 67 -102 -8 0
-66 -108 -92 73 -25 87 0
24 102 -39 -99 -138 -31 0
118 132 140 0
-132 129 86 26 3 62 0
-87 -74 -125 0
-84 9 49 0
34 -129 37 -94 26 0
34 -14 117 -19 0
-130 -83 -118 0
55 77 16 6 95 85 0
-25 106 26 -111 -8 64 0
116 104 0
4 -121 54 61 0
139 -88 -117 -48 0
72 -51 129 87 1 94 0
114 -138 115 -100 91 0
-129 -99 -77 0
-103 -28 20 0
88 -91 -66 64 122 23 0
-23 87 119 -2 88 0
111 56 -71 -62 84 -86 0
-85 -35 -122 0
-109 76 -125 -29 74 130 0
-75 133 -102 0
-23 -83 -49 64 72 -48 0
-132 125 0
-88 133 0
139 -121 127 -136 -104 128 0
4 96 -86 71 -108 119 0
35 101 -43 -74 -121 -100 0
-64 108 -132 17 103 128 0
-109 11 120 42 -77 101 0
-91 119 73 0
-90 -61 -79 -26 -98 0
-128 137 -138 95 52 -15 0
37 19 66 -145 -105 0
133 106 -11 114 -65 0
122 61 0
-126 -9 0
132 -114 0
-54 -100 -126 -124 0
-100 -142 -130 105 0
-41 131 0
-74 -44 -143 0
-43 -74 67 58 0
145 0
